benchmark/results/graph__15-1000-0.10-03_17/error_log/graph__15-1000-0.10-03_17_Quinton_Benders_primal_sub_ERRORLOG.lp
\ This file has been generated by DOcplex
\ ENCODING=ISO-8859-1
\Problem name: Quinton Benders_primal_sub

Maximize
 obj: tau
Subject To
 c1: tau <= 0.001468428781
 c2: y_a0_proc_0 + y_a0_proc_1 + y_a0_proc_2 - tau = 0
 c3: y_a0_proc_0 <= 0
 c4: y_a0_proc_1 <= 1
 c5: y_a0_proc_2 <= 0
 c6: tau <= 0.000884955752
 c7: y_a1_proc_0 + y_a1_proc_2 - tau = 0
 c8: y_a1_proc_0 <= 0
 c9: y_a1_proc_2 <= 1
 c10: tau <= 0.000926784059
 c11: y_a2_proc_0 + y_a2_proc_1 + y_a2_proc_2 - tau = 0
 c12: y_a2_proc_0 <= 1
 c13: y_a2_proc_1 <= 0
 c14: y_a2_proc_2 <= 0
 c15: tau <= 0.001245330012
 c16: y_a3_proc_0 + y_a3_proc_1 + y_a3_proc_2 - tau = 0
 c17: y_a3_proc_0 <= 0
 c18: y_a3_proc_1 <= 1
 c19: y_a3_proc_2 <= 0
 c20: tau <= 0.000973709834
 c21: y_a4_proc_1 + y_a4_proc_2 - tau = 0
 c22: y_a4_proc_1 <= 1
 c23: y_a4_proc_2 <= 0
 c24: tau <= 0.000922509225
 c25: y_a5_proc_0 + y_a5_proc_2 - tau = 0
 c26: y_a5_proc_0 <= 0
 c27: y_a5_proc_2 <= 1
 c28: tau <= 0.000859845228
 c29: y_a6_proc_1 + y_a6_proc_2 - tau = 0
 c30: y_a6_proc_1 <= 0
 c31: y_a6_proc_2 <= 1
 c32: tau <= 0.000851063830
 c33: y_a7_proc_0 + y_a7_proc_1 - tau = 0
 c34: y_a7_proc_0 <= 0
 c35: y_a7_proc_1 <= 1
 c36: tau <= 0.000836820084
 c37: y_a8_proc_0 + y_a8_proc_1 + y_a8_proc_2 - tau = 0
 c38: y_a8_proc_0 <= 1
 c39: y_a8_proc_1 <= 0
 c40: y_a8_proc_2 <= 0
 c41: tau <= 0.000919117647
 c42: y_a9_proc_0 + y_a9_proc_1 + y_a9_proc_2 - tau = 0
 c43: y_a9_proc_0 <= 0
 c44: y_a9_proc_1 <= 0
 c45: y_a9_proc_2 <= 1
 c46: tau <= 0.001658374793
 c47: y_a10_proc_0 + y_a10_proc_1 + y_a10_proc_2 - tau = 0
 c48: y_a10_proc_0 <= 0
 c49: y_a10_proc_1 <= 1
 c50: y_a10_proc_2 <= 0
 c51: tau <= 0.000838926174
 c52: y_a11_proc_0 + y_a11_proc_1 + y_a11_proc_2 - tau = 0
 c53: y_a11_proc_0 <= 0
 c54: y_a11_proc_1 <= 1
 c55: y_a11_proc_2 <= 0
 c56: tau <= 0.001326259947
 c57: y_a12_proc_0 + y_a12_proc_1 + y_a12_proc_2 - tau = 0
 c58: y_a12_proc_0 <= 1
 c59: y_a12_proc_1 <= 0
 c60: y_a12_proc_2 <= 0
 c61: tau <= 0.000860585198
 c62: y_a13_proc_0 + y_a13_proc_1 + y_a13_proc_2 - tau = 0
 c63: y_a13_proc_0 <= 1
 c64: y_a13_proc_1 <= 0
 c65: y_a13_proc_2 <= 0
 c66: tau <= 0.001858736059
 c67: y_a14_proc_0 + y_a14_proc_1 + y_a14_proc_2 - tau = 0
 c68: y_a14_proc_0 <= 0
 c69: y_a14_proc_1 <= 0
 c70: y_a14_proc_2 <= 1
 c71: u_a0 - u_a1 - 1049 y_a1_proc_0 - 1130 y_a1_proc_2 >= -1
 c72: u_a2 - u_a1 - 1049 y_a1_proc_0 - 1130 y_a1_proc_2 >= 0
 c73: u_a2 - u_a3 - 1281 y_a3_proc_0 - 803 y_a3_proc_1 - 1018 y_a3_proc_2 >= 0
 c74: u_a4 - u_a3 - 1281 y_a3_proc_0 - 803 y_a3_proc_1 - 1018 y_a3_proc_2 >= -1
 c75: u_a5 - u_a3 - 1281 y_a3_proc_0 - 803 y_a3_proc_1 - 1018 y_a3_proc_2 >= 0
 c76: u_a6 - u_a0 - 1287 y_a0_proc_0 - 681 y_a0_proc_1 - 1281 y_a0_proc_2 >= 0
 c77: u_a2 - u_a7 - 1018 y_a7_proc_0 - 1175 y_a7_proc_1 >= 0
 c78: u_a8 - u_a6 - 448 y_a6_proc_1 - 1163 y_a6_proc_2 >= 0
 c79: u_a9 - u_a5 - 1077 y_a5_proc_0 - 1084 y_a5_proc_2 >= 0
 c80: u_a9 - u_a10 - 1159 y_a10_proc_0 - 603 y_a10_proc_1 - 853 y_a10_proc_2
       >= 0
 c81: u_a9 - u_a11 - 1075 y_a11_proc_0 - 1192 y_a11_proc_1 - 1062 y_a11_proc_2
       >= 0
 c82: u_a12 - u_a5 - 1077 y_a5_proc_0 - 1084 y_a5_proc_2 >= -1
 c83: u_a13 - u_a0 - 1287 y_a0_proc_0 - 681 y_a0_proc_1 - 1281 y_a0_proc_2 >= 0
 c84: u_a7 - u_a14 - 991 y_a14_proc_0 - 1139 y_a14_proc_1 - 538 y_a14_proc_2
       >= 0
 c85: u_a3 - u_a9 - 1232 y_a9_proc_0 - 1200 y_a9_proc_1 - 1088 y_a9_proc_2 >= 
      -1
 c86: u_a3 - u_a12 - 754 y_a12_proc_0 - 1028 y_a12_proc_1 - 1260 y_a12_proc_2
       >= 0
 c87: - 1159 y_a10_proc_0 - 603 y_a10_proc_1 - 853 y_a10_proc_2 >= -1
 c88: u_a11 - u_a10 - 1159 y_a10_proc_0 - 603 y_a10_proc_1 - 853 y_a10_proc_2
       >= 0
 c89: u_a1 - u_a8 - 1195 y_a8_proc_0 - 618 y_a8_proc_1 - 422 y_a8_proc_2 >= 0
 c90: u_a10 - u_a8 - 1195 y_a8_proc_0 - 618 y_a8_proc_1 - 422 y_a8_proc_2 >= 0
 c91: u_a14 - u_a13 - 1162 y_a13_proc_0 - 534 y_a13_proc_1 - 1260 y_a13_proc_2
       >= 0
 c92: u_a12 - u_a7 - 1018 y_a7_proc_0 - 1175 y_a7_proc_1 >= 0
 c93: - 991 y_a14_proc_0 - 1139 y_a14_proc_1 - 538 y_a14_proc_2 >= -1
 c94: u_a7 - u_a9 - 1232 y_a9_proc_0 - 1200 y_a9_proc_1 - 1088 y_a9_proc_2 >= 
      -1
 c95: u_a4 - u_a2 - 1079 y_a2_proc_0 - 849 y_a2_proc_1 - 1213 y_a2_proc_2 >= -1
 c96: u_a7 - u_a4 - 1027 y_a4_proc_1 - 1060 y_a4_proc_2 >= 0
 c97: u_a3 - u_a7 - 1018 y_a7_proc_0 - 1175 y_a7_proc_1 >= 0
 c98: u_a5 - u_a13 - 1162 y_a13_proc_0 - 534 y_a13_proc_1 - 1260 y_a13_proc_2
       >= 0
 c99: u_a13 - u_a8 - 1195 y_a8_proc_0 - 618 y_a8_proc_1 - 422 y_a8_proc_2 >= 0
 c100: u_a1 - u_a0 - 1281 y_a0_proc_2 >= -2574
 c101: u_a1 - u_a0 - 1287 y_a0_proc_0 >= -3861
 c102: u_a0 - u_a1 - 1130 y_a1_proc_2 >= -1
 c103: u_a0 - u_a1 - 1049 y_a1_proc_0 >= -1288
 c104: u_a2 - u_a0 - 1281 y_a0_proc_2 >= 999997425
 c105: u_a2 - u_a0 - 1287 y_a0_proc_0 >= 999998712
 c106: u_a2 - u_a0 - 681 y_a0_proc_1 >= 999998712
 c107: u_a0 - u_a2 - 1213 y_a2_proc_2 >= -1000002574
 c108: u_a0 - u_a2 - 1079 y_a2_proc_0 >= -1000001287
 c109: u_a0 - u_a2 - 849 y_a2_proc_1 >= -1000001287
 c110: u_a3 - u_a0 - 1281 y_a0_proc_2 >= 999997425
 c111: u_a3 - u_a0 - 1287 y_a0_proc_0 >= 999997425
 c112: u_a3 - u_a0 - 681 y_a0_proc_1 >= 999999999
 c113: u_a0 - u_a3 - 1018 y_a3_proc_2 >= -1000002574
 c114: u_a0 - u_a3 - 1281 y_a3_proc_0 >= -1000002574
 c115: u_a0 - u_a3 - 803 y_a3_proc_1 >= -1000000000
 c116: u_a4 - u_a0 - 1281 y_a0_proc_2 >= 999997425
 c117: u_a4 - u_a0 - 681 y_a0_proc_1 >= 999999999
 c118: u_a0 - u_a4 - 1060 y_a4_proc_2 >= -1000002574
 c119: u_a0 - u_a4 - 1027 y_a4_proc_1 >= -1000000000
 c120: u_a5 - u_a0 - 1281 y_a0_proc_2 >= 999998712
 c121: u_a5 - u_a0 - 1287 y_a0_proc_0 >= 999997425
 c122: u_a0 - u_a5 - 1084 y_a5_proc_2 >= -1000001287
 c123: u_a0 - u_a5 - 1077 y_a5_proc_0 >= -1000002574
 c124: u_a6 - u_a0 - 1281 y_a0_proc_2 >= -2574
 c125: u_a6 - u_a0 - 681 y_a0_proc_1 >= -2574
 c126: u_a0 - u_a6 - 1163 y_a6_proc_2 >= -1
 c127: u_a0 - u_a6 - 448 y_a6_proc_1 >= -1
 c128: u_a7 - u_a0 - 1287 y_a0_proc_0 >= 999997425
 c129: u_a7 - u_a0 - 681 y_a0_proc_1 >= 999999999
 c130: u_a0 - u_a7 - 1018 y_a7_proc_0 >= -1000002574
 c131: u_a0 - u_a7 - 1175 y_a7_proc_1 >= -1000000000
 c132: u_a8 - u_a0 - 1281 y_a0_proc_2 >= -3861
 c133: u_a8 - u_a0 - 1287 y_a0_proc_0 >= -2574
 c134: u_a8 - u_a0 - 681 y_a0_proc_1 >= -2574
 c135: u_a0 - u_a8 - 422 y_a8_proc_2 >= -1288
 c136: u_a0 - u_a8 - 1195 y_a8_proc_0 >= -1
 c137: u_a0 - u_a8 - 618 y_a8_proc_1 >= -1
 c138: u_a9 - u_a0 - 1281 y_a0_proc_2 >= 999998712
 c139: u_a9 - u_a0 - 1287 y_a0_proc_0 >= 999997425
 c140: u_a9 - u_a0 - 681 y_a0_proc_1 >= 999998712
 c141: u_a0 - u_a9 - 1088 y_a9_proc_2 >= -1000001287
 c142: u_a0 - u_a9 - 1232 y_a9_proc_0 >= -1000002574
 c143: u_a0 - u_a9 - 1200 y_a9_proc_1 >= -1000001287
 c144: u_a10 - u_a0 - 1281 y_a0_proc_2 >= -2574
 c145: u_a10 - u_a0 - 1287 y_a0_proc_0 >= -2574
 c146: u_a10 - u_a0 - 681 y_a0_proc_1 >= 0
 c147: u_a0 - u_a10 - 853 y_a10_proc_2 >= -2575
 c148: u_a0 - u_a10 - 1159 y_a10_proc_0 >= -2575
 c149: u_a0 - u_a10 - 603 y_a10_proc_1 >= -1
 c150: u_a11 - u_a0 - 1281 y_a0_proc_2 >= -2574
 c151: u_a11 - u_a0 - 1287 y_a0_proc_0 >= -2574
 c152: u_a11 - u_a0 - 681 y_a0_proc_1 >= 0
 c153: u_a0 - u_a11 - 1062 y_a11_proc_2 >= -2575
 c154: u_a0 - u_a11 - 1075 y_a11_proc_0 >= -2575
 c155: u_a0 - u_a11 - 1192 y_a11_proc_1 >= -1
 c156: u_a12 - u_a0 - 1281 y_a0_proc_2 >= 999997425
 c157: u_a12 - u_a0 - 1287 y_a0_proc_0 >= 999998712
 c158: u_a12 - u_a0 - 681 y_a0_proc_1 >= 999998712
 c159: u_a0 - u_a12 - 1260 y_a12_proc_2 >= -1000002574
 c160: u_a0 - u_a12 - 754 y_a12_proc_0 >= -1000001287
 c161: u_a0 - u_a12 - 1028 y_a12_proc_1 >= -1000001287
 c162: u_a13 - u_a0 - 1281 y_a0_proc_2 >= -3861
 c163: u_a13 - u_a0 - 1287 y_a0_proc_0 >= -2574
 c164: u_a13 - u_a0 - 681 y_a0_proc_1 >= -2574
 c165: u_a0 - u_a13 - 1260 y_a13_proc_2 >= -1288
 c166: u_a0 - u_a13 - 1162 y_a13_proc_0 >= -1
 c167: u_a0 - u_a13 - 534 y_a13_proc_1 >= -1
 c168: u_a14 - u_a0 - 1281 y_a0_proc_2 >= 999998712
 c169: u_a14 - u_a0 - 1287 y_a0_proc_0 >= 999997425
 c170: u_a14 - u_a0 - 681 y_a0_proc_1 >= 999998712
 c171: u_a0 - u_a14 - 538 y_a14_proc_2 >= -1000001287
 c172: u_a0 - u_a14 - 991 y_a14_proc_0 >= -1000002574
 c173: u_a0 - u_a14 - 1139 y_a14_proc_1 >= -1000001287
 c174: u_a2 - u_a1 - 1130 y_a1_proc_2 >= 999997425
 c175: u_a2 - u_a1 - 1049 y_a1_proc_0 >= 999997425
 c176: u_a1 - u_a2 - 1213 y_a2_proc_2 >= -1000000000
 c177: u_a1 - u_a2 - 1079 y_a2_proc_0 >= -1000000000
 c178: u_a3 - u_a1 - 1130 y_a1_proc_2 >= 999998712
 c179: u_a3 - u_a1 - 1049 y_a1_proc_0 >= 999997425
 c180: u_a1 - u_a3 - 1018 y_a3_proc_2 >= -1000001287
 c181: u_a1 - u_a3 - 1281 y_a3_proc_0 >= -1000002574
 c182: u_a4 - u_a1 - 1130 y_a1_proc_2 >= 999998712
 c183: u_a1 - u_a4 - 1060 y_a4_proc_2 >= -1000001287
 c184: u_a5 - u_a1 - 1130 y_a1_proc_2 >= 999999999
 c185: u_a5 - u_a1 - 1049 y_a1_proc_0 >= 999997425
 c186: u_a1 - u_a5 - 1084 y_a5_proc_2 >= -1000000000
 c187: u_a1 - u_a5 - 1077 y_a5_proc_0 >= -1000002574
 c188: u_a6 - u_a1 - 1130 y_a1_proc_2 >= -1
 c189: u_a1 - u_a6 - 1163 y_a6_proc_2 >= 0
 c190: u_a7 - u_a1 - 1049 y_a1_proc_0 >= 999997425
 c191: u_a1 - u_a7 - 1018 y_a7_proc_0 >= -1000002574
 c192: u_a8 - u_a1 - 1130 y_a1_proc_2 >= -2575
 c193: u_a8 - u_a1 - 1049 y_a1_proc_0 >= -2575
 c194: u_a1 - u_a8 - 422 y_a8_proc_2 >= 0
 c195: u_a1 - u_a8 - 1195 y_a8_proc_0 >= 0
 c196: u_a9 - u_a1 - 1130 y_a1_proc_2 >= 999999999
 c197: u_a9 - u_a1 - 1049 y_a1_proc_0 >= 999997425
 c198: u_a1 - u_a9 - 1088 y_a9_proc_2 >= -1000000000
 c199: u_a1 - u_a9 - 1232 y_a9_proc_0 >= -1000002574
 c200: u_a10 - u_a1 - 1130 y_a1_proc_2 >= -2575
 c201: u_a10 - u_a1 - 1049 y_a1_proc_0 >= -3862
 c202: u_a1 - u_a10 - 853 y_a10_proc_2 >= 0
 c203: u_a1 - u_a10 - 1159 y_a10_proc_0 >= -1287
 c204: u_a11 - u_a1 - 1130 y_a1_proc_2 >= -2574
 c205: u_a11 - u_a1 - 1049 y_a1_proc_0 >= -3861
 c206: u_a1 - u_a11 - 1062 y_a11_proc_2 >= -1
 c207: u_a1 - u_a11 - 1075 y_a11_proc_0 >= -1288
 c208: u_a12 - u_a1 - 1130 y_a1_proc_2 >= 999998712
 c209: u_a12 - u_a1 - 1049 y_a1_proc_0 >= 999998712
 c210: u_a1 - u_a12 - 1260 y_a12_proc_2 >= -1000001287
 c211: u_a1 - u_a12 - 754 y_a12_proc_0 >= -1000001287
 c212: u_a13 - u_a1 - 1130 y_a1_proc_2 >= -2575
 c213: u_a13 - u_a1 - 1049 y_a1_proc_0 >= -2575
 c214: u_a1 - u_a13 - 1260 y_a13_proc_2 >= 0
 c215: u_a1 - u_a13 - 1162 y_a13_proc_0 >= 0
 c216: u_a14 - u_a1 - 1130 y_a1_proc_2 >= 999999998
 c217: u_a14 - u_a1 - 1049 y_a1_proc_0 >= 999997424
 c218: u_a1 - u_a14 - 538 y_a14_proc_2 >= -999999999
 c219: u_a1 - u_a14 - 991 y_a14_proc_0 >= -1000002573
 c220: u_a3 - u_a2 - 1213 y_a2_proc_2 >= -3862
 c221: u_a3 - u_a2 - 1079 y_a2_proc_0 >= -2575
 c222: u_a3 - u_a2 - 849 y_a2_proc_1 >= -2575
 c223: u_a2 - u_a3 - 1018 y_a3_proc_2 >= -1287
 c224: u_a2 - u_a3 - 1281 y_a3_proc_0 >= 0
 c225: u_a2 - u_a3 - 803 y_a3_proc_1 >= 0
 c226: u_a4 - u_a2 - 1213 y_a2_proc_2 >= -3862
 c227: u_a4 - u_a2 - 849 y_a2_proc_1 >= -2575
 c228: u_a2 - u_a4 - 1060 y_a4_proc_2 >= -1287
 c229: u_a2 - u_a4 - 1027 y_a4_proc_1 >= 0
 c230: u_a5 - u_a2 - 1213 y_a2_proc_2 >= -2574
 c231: u_a5 - u_a2 - 1079 y_a2_proc_0 >= -2574
 c232: u_a2 - u_a5 - 1084 y_a5_proc_2 >= -1
 c233: u_a2 - u_a5 - 1077 y_a5_proc_0 >= -1
 c234: u_a6 - u_a2 - 1213 y_a2_proc_2 >= -1000001287
 c235: u_a6 - u_a2 - 849 y_a2_proc_1 >= -1000002574
 c236: u_a2 - u_a6 - 1163 y_a6_proc_2 >= 999998712
 c237: u_a2 - u_a6 - 448 y_a6_proc_1 >= 999997425
 c238: u_a7 - u_a2 - 1079 y_a2_proc_0 >= -2575
 c239: u_a7 - u_a2 - 849 y_a2_proc_1 >= -2575
 c240: u_a2 - u_a7 - 1018 y_a7_proc_0 >= 0
 c241: u_a2 - u_a7 - 1175 y_a7_proc_1 >= 0
 c242: u_a8 - u_a2 - 1213 y_a2_proc_2 >= -1000002574
 c243: u_a8 - u_a2 - 1079 y_a2_proc_0 >= -1000000000
 c244: u_a8 - u_a2 - 849 y_a2_proc_1 >= -1000002574
 c245: u_a2 - u_a8 - 422 y_a8_proc_2 >= 999997425
 c246: u_a2 - u_a8 - 1195 y_a8_proc_0 >= 999999999
 c247: u_a2 - u_a8 - 618 y_a8_proc_1 >= 999997425
 c248: u_a9 - u_a2 - 1213 y_a2_proc_2 >= -2574
 c249: u_a9 - u_a2 - 1079 y_a2_proc_0 >= -2574
 c250: u_a9 - u_a2 - 849 y_a2_proc_1 >= -3861
 c251: u_a2 - u_a9 - 1088 y_a9_proc_2 >= -1
 c252: u_a2 - u_a9 - 1232 y_a9_proc_0 >= -1
 c253: u_a2 - u_a9 - 1200 y_a9_proc_1 >= -1288
 c254: u_a10 - u_a2 - 1213 y_a2_proc_2 >= -1000002574
 c255: u_a10 - u_a2 - 1079 y_a2_proc_0 >= -1000001287
 c256: u_a10 - u_a2 - 849 y_a2_proc_1 >= -1000001287
 c257: u_a2 - u_a10 - 853 y_a10_proc_2 >= 999997425
 c258: u_a2 - u_a10 - 1159 y_a10_proc_0 >= 999998712
 c259: u_a2 - u_a10 - 603 y_a10_proc_1 >= 999998712
 c260: u_a11 - u_a2 - 1213 y_a2_proc_2 >= -1000002574
 c261: u_a11 - u_a2 - 1079 y_a2_proc_0 >= -1000001287
 c262: u_a11 - u_a2 - 849 y_a2_proc_1 >= -1000001287
 c263: u_a2 - u_a11 - 1062 y_a11_proc_2 >= 999997425
 c264: u_a2 - u_a11 - 1075 y_a11_proc_0 >= 999998712
 c265: u_a2 - u_a11 - 1192 y_a11_proc_1 >= 999998712
 c266: u_a12 - u_a2 - 1213 y_a2_proc_2 >= -2575
 c267: u_a12 - u_a2 - 1079 y_a2_proc_0 >= -1
 c268: u_a12 - u_a2 - 849 y_a2_proc_1 >= -2575
 c269: u_a2 - u_a12 - 1260 y_a12_proc_2 >= -2574
 c270: u_a2 - u_a12 - 754 y_a12_proc_0 >= 0
 c271: u_a2 - u_a12 - 1028 y_a12_proc_1 >= -2574
 c272: u_a13 - u_a2 - 1213 y_a2_proc_2 >= -1000002574
 c273: u_a13 - u_a2 - 1079 y_a2_proc_0 >= -1000000000
 c274: u_a13 - u_a2 - 849 y_a2_proc_1 >= -1000002574
 c275: u_a2 - u_a13 - 1260 y_a13_proc_2 >= 999997425
 c276: u_a2 - u_a13 - 1162 y_a13_proc_0 >= 999999999
 c277: u_a2 - u_a13 - 534 y_a13_proc_1 >= 999997425
 c278: u_a14 - u_a2 - 1213 y_a2_proc_2 >= -1
 c279: u_a14 - u_a2 - 1079 y_a2_proc_0 >= -1
 c280: u_a14 - u_a2 - 849 y_a2_proc_1 >= -1288
 c281: u_a2 - u_a14 - 538 y_a14_proc_2 >= -2574
 c282: u_a2 - u_a14 - 991 y_a14_proc_0 >= -2574
 c283: u_a2 - u_a14 - 1139 y_a14_proc_1 >= -3861
 c284: u_a4 - u_a3 - 1018 y_a3_proc_2 >= -2575
 c285: u_a4 - u_a3 - 803 y_a3_proc_1 >= -1
 c286: u_a3 - u_a4 - 1060 y_a4_proc_2 >= -2574
 c287: u_a3 - u_a4 - 1027 y_a4_proc_1 >= 0
 c288: u_a5 - u_a3 - 1018 y_a3_proc_2 >= -2574
 c289: u_a5 - u_a3 - 1281 y_a3_proc_0 >= -3861
 c290: u_a3 - u_a5 - 1084 y_a5_proc_2 >= -1
 c291: u_a3 - u_a5 - 1077 y_a5_proc_0 >= -1288
 c292: u_a6 - u_a3 - 1018 y_a3_proc_2 >= -1000000000
 c293: u_a6 - u_a3 - 803 y_a3_proc_1 >= -1000000000
 c294: u_a3 - u_a6 - 1163 y_a6_proc_2 >= 999997425
 c295: u_a3 - u_a6 - 448 y_a6_proc_1 >= 999997425
 c296: u_a7 - u_a3 - 1281 y_a3_proc_0 >= -2575
 c297: u_a7 - u_a3 - 803 y_a3_proc_1 >= -1
 c298: u_a3 - u_a7 - 1018 y_a7_proc_0 >= -2574
 c299: u_a3 - u_a7 - 1175 y_a7_proc_1 >= 0
 c300: u_a8 - u_a3 - 1018 y_a3_proc_2 >= -1000002574
 c301: u_a8 - u_a3 - 1281 y_a3_proc_0 >= -1000001287
 c302: u_a8 - u_a3 - 803 y_a3_proc_1 >= -1000001287
 c303: u_a3 - u_a8 - 422 y_a8_proc_2 >= 999997425
 c304: u_a3 - u_a8 - 1195 y_a8_proc_0 >= 999998712
 c305: u_a3 - u_a8 - 618 y_a8_proc_1 >= 999998712
 c306: u_a9 - u_a3 - 1018 y_a3_proc_2 >= -2574
 c307: u_a9 - u_a3 - 1281 y_a3_proc_0 >= -3861
 c308: u_a9 - u_a3 - 803 y_a3_proc_1 >= -2574
 c309: u_a3 - u_a9 - 1088 y_a9_proc_2 >= -1
 c310: u_a3 - u_a9 - 1232 y_a9_proc_0 >= -1288
 c311: u_a3 - u_a9 - 1200 y_a9_proc_1 >= -1
 c312: u_a10 - u_a3 - 1018 y_a3_proc_2 >= -1000002574
 c313: u_a10 - u_a3 - 1281 y_a3_proc_0 >= -1000002574
 c314: u_a10 - u_a3 - 803 y_a3_proc_1 >= -1000000000
 c315: u_a3 - u_a10 - 853 y_a10_proc_2 >= 999997425
 c316: u_a3 - u_a10 - 1159 y_a10_proc_0 >= 999997425
 c317: u_a3 - u_a10 - 603 y_a10_proc_1 >= 999999999
 c318: u_a11 - u_a3 - 1018 y_a3_proc_2 >= -1000002574
 c319: u_a11 - u_a3 - 1281 y_a3_proc_0 >= -1000002574
 c320: u_a11 - u_a3 - 803 y_a3_proc_1 >= -1000000000
 c321: u_a3 - u_a11 - 1062 y_a11_proc_2 >= 999997425
 c322: u_a3 - u_a11 - 1075 y_a11_proc_0 >= 999997425
 c323: u_a3 - u_a11 - 1192 y_a11_proc_1 >= 999999999
 c324: u_a12 - u_a3 - 1018 y_a3_proc_2 >= -3861
 c325: u_a12 - u_a3 - 1281 y_a3_proc_0 >= -2574
 c326: u_a12 - u_a3 - 803 y_a3_proc_1 >= -2574
 c327: u_a3 - u_a12 - 1260 y_a12_proc_2 >= -1288
 c328: u_a3 - u_a12 - 754 y_a12_proc_0 >= -1
 c329: u_a3 - u_a12 - 1028 y_a12_proc_1 >= -1
 c330: u_a13 - u_a3 - 1018 y_a3_proc_2 >= -1000002574
 c331: u_a13 - u_a3 - 1281 y_a3_proc_0 >= -1000001287
 c332: u_a13 - u_a3 - 803 y_a3_proc_1 >= -1000001287
 c333: u_a3 - u_a13 - 1260 y_a13_proc_2 >= 999997425
 c334: u_a3 - u_a13 - 1162 y_a13_proc_0 >= 999998712
 c335: u_a3 - u_a13 - 534 y_a13_proc_1 >= 999998712
 c336: u_a14 - u_a3 - 1018 y_a3_proc_2 >= -2575
 c337: u_a14 - u_a3 - 1281 y_a3_proc_0 >= -3862
 c338: u_a14 - u_a3 - 803 y_a3_proc_1 >= -2575
 c339: u_a3 - u_a14 - 538 y_a14_proc_2 >= 0
 c340: u_a3 - u_a14 - 991 y_a14_proc_0 >= -1287
 c341: u_a3 - u_a14 - 1139 y_a14_proc_1 >= 0
 c342: u_a5 - u_a4 - 1060 y_a4_proc_2 >= -2574
 c343: u_a4 - u_a5 - 1084 y_a5_proc_2 >= -1
 c344: u_a6 - u_a4 - 1060 y_a4_proc_2 >= -1000001287
 c345: u_a6 - u_a4 - 1027 y_a4_proc_1 >= -1000001287
 c346: u_a4 - u_a6 - 1163 y_a6_proc_2 >= 999998712
 c347: u_a4 - u_a6 - 448 y_a6_proc_1 >= 999998712
 c348: u_a7 - u_a4 - 1027 y_a4_proc_1 >= 0
 c349: u_a4 - u_a7 - 1175 y_a7_proc_1 >= -1
 c350: u_a8 - u_a4 - 1060 y_a4_proc_2 >= -1000002574
 c351: u_a8 - u_a4 - 1027 y_a4_proc_1 >= -1000001287
 c352: u_a4 - u_a8 - 422 y_a8_proc_2 >= 999997425
 c353: u_a4 - u_a8 - 618 y_a8_proc_1 >= 999998712
 c354: u_a9 - u_a4 - 1060 y_a4_proc_2 >= -2573
 c355: u_a9 - u_a4 - 1027 y_a4_proc_1 >= -2573
 c356: u_a4 - u_a9 - 1088 y_a9_proc_2 >= -2
 c357: u_a4 - u_a9 - 1200 y_a9_proc_1 >= -2
 c358: u_a10 - u_a4 - 1060 y_a4_proc_2 >= -1000002573
 c359: u_a10 - u_a4 - 1027 y_a4_proc_1 >= -999999999
 c360: u_a4 - u_a10 - 853 y_a10_proc_2 >= 999997424
 c361: u_a4 - u_a10 - 603 y_a10_proc_1 >= 999999998
 c362: u_a11 - u_a4 - 1060 y_a4_proc_2 >= -1000002573
 c363: u_a11 - u_a4 - 1027 y_a4_proc_1 >= -999999999
 c364: u_a4 - u_a11 - 1062 y_a11_proc_2 >= 999997424
 c365: u_a4 - u_a11 - 1192 y_a11_proc_1 >= 999999998
 c366: u_a12 - u_a4 - 1060 y_a4_proc_2 >= -3861
 c367: u_a12 - u_a4 - 1027 y_a4_proc_1 >= -2574
 c368: u_a4 - u_a12 - 1260 y_a12_proc_2 >= -1288
 c369: u_a4 - u_a12 - 1028 y_a12_proc_1 >= -1
 c370: u_a13 - u_a4 - 1060 y_a4_proc_2 >= -1000002574
 c371: u_a13 - u_a4 - 1027 y_a4_proc_1 >= -1000001287
 c372: u_a4 - u_a13 - 1260 y_a13_proc_2 >= 999997425
 c373: u_a4 - u_a13 - 534 y_a13_proc_1 >= 999998712
 c374: u_a14 - u_a4 - 1060 y_a4_proc_2 >= -2574
 c375: u_a14 - u_a4 - 1027 y_a4_proc_1 >= -2574
 c376: u_a4 - u_a14 - 538 y_a14_proc_2 >= -1
 c377: u_a4 - u_a14 - 1139 y_a14_proc_1 >= -1
 c378: u_a6 - u_a5 - 1084 y_a5_proc_2 >= -1000000000
 c379: u_a5 - u_a6 - 1163 y_a6_proc_2 >= 999999999
 c380: u_a7 - u_a5 - 1077 y_a5_proc_0 >= -5149
 c381: u_a5 - u_a7 - 1018 y_a7_proc_0 >= 0
 c382: u_a8 - u_a5 - 1084 y_a5_proc_2 >= -1000001287
 c383: u_a8 - u_a5 - 1077 y_a5_proc_0 >= -1000001287
 c384: u_a5 - u_a8 - 422 y_a8_proc_2 >= 999998712
 c385: u_a5 - u_a8 - 1195 y_a8_proc_0 >= 999998712
 c386: u_a9 - u_a5 - 1084 y_a5_proc_2 >= 0
 c387: u_a9 - u_a5 - 1077 y_a5_proc_0 >= -2574
 c388: u_a5 - u_a9 - 1088 y_a9_proc_2 >= -1
 c389: u_a5 - u_a9 - 1232 y_a9_proc_0 >= -2575
 c390: u_a10 - u_a5 - 1084 y_a5_proc_2 >= -1000001287
 c391: u_a10 - u_a5 - 1077 y_a5_proc_0 >= -1000002574
 c392: u_a5 - u_a10 - 853 y_a10_proc_2 >= 999998712
 c393: u_a5 - u_a10 - 1159 y_a10_proc_0 >= 999997425
 c394: u_a11 - u_a5 - 1084 y_a5_proc_2 >= -1000001287
 c395: u_a11 - u_a5 - 1077 y_a5_proc_0 >= -1000002574
 c396: u_a5 - u_a11 - 1062 y_a11_proc_2 >= 999998712
 c397: u_a5 - u_a11 - 1075 y_a11_proc_0 >= 999997425
 c398: u_a12 - u_a5 - 1084 y_a5_proc_2 >= -2575
 c399: u_a12 - u_a5 - 1077 y_a5_proc_0 >= -2575
 c400: u_a5 - u_a12 - 1260 y_a12_proc_2 >= 0
 c401: u_a5 - u_a12 - 754 y_a12_proc_0 >= 0
 c402: u_a13 - u_a5 - 1084 y_a5_proc_2 >= -1000001287
 c403: u_a13 - u_a5 - 1077 y_a5_proc_0 >= -1000001287
 c404: u_a5 - u_a13 - 1260 y_a13_proc_2 >= 999998712
 c405: u_a5 - u_a13 - 1162 y_a13_proc_0 >= 999998712
 c406: u_a14 - u_a5 - 1084 y_a5_proc_2 >= -1
 c407: u_a14 - u_a5 - 1077 y_a5_proc_0 >= -2575
 c408: u_a5 - u_a14 - 538 y_a14_proc_2 >= 0
 c409: u_a5 - u_a14 - 991 y_a14_proc_0 >= -2574
 c410: u_a7 - u_a6 - 448 y_a6_proc_1 >= 999997425
 c411: u_a6 - u_a7 - 1175 y_a7_proc_1 >= -1000000000
 c412: u_a8 - u_a6 - 1163 y_a6_proc_2 >= -2574
 c413: u_a8 - u_a6 - 448 y_a6_proc_1 >= -3861
 c414: u_a6 - u_a8 - 422 y_a8_proc_2 >= -1
 c415: u_a6 - u_a8 - 618 y_a8_proc_1 >= -1288
 c416: u_a9 - u_a6 - 1163 y_a6_proc_2 >= 999999999
 c417: u_a9 - u_a6 - 448 y_a6_proc_1 >= 999997425
 c418: u_a6 - u_a9 - 1088 y_a9_proc_2 >= -1000000000
 c419: u_a6 - u_a9 - 1200 y_a9_proc_1 >= -1000002574
 c420: u_a10 - u_a6 - 1163 y_a6_proc_2 >= -2574
 c421: u_a10 - u_a6 - 448 y_a6_proc_1 >= -2574
 c422: u_a6 - u_a10 - 853 y_a10_proc_2 >= -1
 c423: u_a6 - u_a10 - 603 y_a10_proc_1 >= -1
 c424: u_a11 - u_a6 - 1163 y_a6_proc_2 >= -2574
 c425: u_a11 - u_a6 - 448 y_a6_proc_1 >= -2574
 c426: u_a6 - u_a11 - 1062 y_a11_proc_2 >= -1
 c427: u_a6 - u_a11 - 1192 y_a11_proc_1 >= -1
 c428: u_a12 - u_a6 - 1163 y_a6_proc_2 >= 999998712
 c429: u_a12 - u_a6 - 448 y_a6_proc_1 >= 999997425
 c430: u_a6 - u_a12 - 1260 y_a12_proc_2 >= -1000001287
 c431: u_a6 - u_a12 - 1028 y_a12_proc_1 >= -1000002574
 c432: u_a13 - u_a6 - 1163 y_a6_proc_2 >= -2574
 c433: u_a13 - u_a6 - 448 y_a6_proc_1 >= -3861
 c434: u_a6 - u_a13 - 1260 y_a13_proc_2 >= -1
 c435: u_a6 - u_a13 - 534 y_a13_proc_1 >= -1288
 c436: u_a14 - u_a6 - 1163 y_a6_proc_2 >= 999999999
 c437: u_a14 - u_a6 - 448 y_a6_proc_1 >= 999997425
 c438: u_a6 - u_a14 - 538 y_a14_proc_2 >= -1000000000
 c439: u_a6 - u_a14 - 1139 y_a14_proc_1 >= -1000002574
 c440: u_a8 - u_a7 - 1018 y_a7_proc_0 >= -1000001287
 c441: u_a8 - u_a7 - 1175 y_a7_proc_1 >= -1000001287
 c442: u_a7 - u_a8 - 1195 y_a8_proc_0 >= 999998712
 c443: u_a7 - u_a8 - 618 y_a8_proc_1 >= 999998712
 c444: u_a9 - u_a7 - 1018 y_a7_proc_0 >= -3861
 c445: u_a9 - u_a7 - 1175 y_a7_proc_1 >= -2574
 c446: u_a7 - u_a9 - 1232 y_a9_proc_0 >= -1288
 c447: u_a7 - u_a9 - 1200 y_a9_proc_1 >= -1
 c448: u_a10 - u_a7 - 1018 y_a7_proc_0 >= -1000002573
 c449: u_a10 - u_a7 - 1175 y_a7_proc_1 >= -999999999
 c450: u_a7 - u_a10 - 1159 y_a10_proc_0 >= 999997424
 c451: u_a7 - u_a10 - 603 y_a10_proc_1 >= 999999998
 c452: u_a11 - u_a7 - 1018 y_a7_proc_0 >= -1000002573
 c453: u_a11 - u_a7 - 1175 y_a7_proc_1 >= -999999999
 c454: u_a7 - u_a11 - 1075 y_a11_proc_0 >= 999997424
 c455: u_a7 - u_a11 - 1192 y_a11_proc_1 >= 999999998
 c456: u_a12 - u_a7 - 1018 y_a7_proc_0 >= -2574
 c457: u_a12 - u_a7 - 1175 y_a7_proc_1 >= -2574
 c458: u_a7 - u_a12 - 754 y_a12_proc_0 >= -1
 c459: u_a7 - u_a12 - 1028 y_a12_proc_1 >= -1
 c460: u_a13 - u_a7 - 1018 y_a7_proc_0 >= -1000001287
 c461: u_a13 - u_a7 - 1175 y_a7_proc_1 >= -1000001287
 c462: u_a7 - u_a13 - 1162 y_a13_proc_0 >= 999998712
 c463: u_a7 - u_a13 - 534 y_a13_proc_1 >= 999998712
 c464: u_a14 - u_a7 - 1018 y_a7_proc_0 >= -1288
 c465: u_a14 - u_a7 - 1175 y_a7_proc_1 >= -1
 c466: u_a7 - u_a14 - 991 y_a14_proc_0 >= -3861
 c467: u_a7 - u_a14 - 1139 y_a14_proc_1 >= -2574
 c468: u_a9 - u_a8 - 422 y_a8_proc_2 >= 999998712
 c469: u_a9 - u_a8 - 1195 y_a8_proc_0 >= 999998712
 c470: u_a9 - u_a8 - 618 y_a8_proc_1 >= 999997425
 c471: u_a8 - u_a9 - 1088 y_a9_proc_2 >= -1000001287
 c472: u_a8 - u_a9 - 1232 y_a9_proc_0 >= -1000001287
 c473: u_a8 - u_a9 - 1200 y_a9_proc_1 >= -1000002574
 c474: u_a10 - u_a8 - 422 y_a8_proc_2 >= -3861
 c475: u_a10 - u_a8 - 1195 y_a8_proc_0 >= -2574
 c476: u_a10 - u_a8 - 618 y_a8_proc_1 >= -2574
 c477: u_a8 - u_a10 - 853 y_a10_proc_2 >= -1288
 c478: u_a8 - u_a10 - 1159 y_a10_proc_0 >= -1
 c479: u_a8 - u_a10 - 603 y_a10_proc_1 >= -1
 c480: u_a11 - u_a8 - 422 y_a8_proc_2 >= -3861
 c481: u_a11 - u_a8 - 1195 y_a8_proc_0 >= -2574
 c482: u_a11 - u_a8 - 618 y_a8_proc_1 >= -2574
 c483: u_a8 - u_a11 - 1062 y_a11_proc_2 >= -1288
 c484: u_a8 - u_a11 - 1075 y_a11_proc_0 >= -1
 c485: u_a8 - u_a11 - 1192 y_a11_proc_1 >= -1
 c486: u_a12 - u_a8 - 422 y_a8_proc_2 >= 999997425
 c487: u_a12 - u_a8 - 1195 y_a8_proc_0 >= 999999999
 c488: u_a12 - u_a8 - 618 y_a8_proc_1 >= 999997425
 c489: u_a8 - u_a12 - 1260 y_a12_proc_2 >= -1000002574
 c490: u_a8 - u_a12 - 754 y_a12_proc_0 >= -1000000000
 c491: u_a8 - u_a12 - 1028 y_a12_proc_1 >= -1000002574
 c492: u_a13 - u_a8 - 422 y_a8_proc_2 >= -2574
 c493: u_a13 - u_a8 - 1195 y_a8_proc_0 >= 0
 c494: u_a13 - u_a8 - 618 y_a8_proc_1 >= -2574
 c495: u_a8 - u_a13 - 1260 y_a13_proc_2 >= -2575
 c496: u_a8 - u_a13 - 1162 y_a13_proc_0 >= -1
 c497: u_a8 - u_a13 - 534 y_a13_proc_1 >= -2575
 c498: u_a14 - u_a8 - 422 y_a8_proc_2 >= 999998712
 c499: u_a14 - u_a8 - 1195 y_a8_proc_0 >= 999998712
 c500: u_a14 - u_a8 - 618 y_a8_proc_1 >= 999997425
 c501: u_a8 - u_a14 - 538 y_a14_proc_2 >= -1000001287
 c502: u_a8 - u_a14 - 991 y_a14_proc_0 >= -1000001287
 c503: u_a8 - u_a14 - 1139 y_a14_proc_1 >= -1000002574
 c504: u_a10 - u_a9 - 1088 y_a9_proc_2 >= -1000001287
 c505: u_a10 - u_a9 - 1232 y_a9_proc_0 >= -1000002574
 c506: u_a10 - u_a9 - 1200 y_a9_proc_1 >= -1000001287
 c507: u_a9 - u_a10 - 853 y_a10_proc_2 >= 999998712
 c508: u_a9 - u_a10 - 1159 y_a10_proc_0 >= 999997425
 c509: u_a9 - u_a10 - 603 y_a10_proc_1 >= 999998712
 c510: u_a11 - u_a9 - 1088 y_a9_proc_2 >= -1000001287
 c511: u_a11 - u_a9 - 1232 y_a9_proc_0 >= -1000002574
 c512: u_a11 - u_a9 - 1200 y_a9_proc_1 >= -1000001287
 c513: u_a9 - u_a11 - 1062 y_a11_proc_2 >= 999998712
 c514: u_a9 - u_a11 - 1075 y_a11_proc_0 >= 999997425
 c515: u_a9 - u_a11 - 1192 y_a11_proc_1 >= 999998712
 c516: u_a12 - u_a9 - 1088 y_a9_proc_2 >= -2575
 c517: u_a12 - u_a9 - 1232 y_a9_proc_0 >= -2575
 c518: u_a12 - u_a9 - 1200 y_a9_proc_1 >= -3862
 c519: u_a9 - u_a12 - 1260 y_a12_proc_2 >= 0
 c520: u_a9 - u_a12 - 754 y_a12_proc_0 >= 0
 c521: u_a9 - u_a12 - 1028 y_a12_proc_1 >= -1287
 c522: u_a13 - u_a9 - 1088 y_a9_proc_2 >= -1000001287
 c523: u_a13 - u_a9 - 1232 y_a9_proc_0 >= -1000001287
 c524: u_a13 - u_a9 - 1200 y_a9_proc_1 >= -1000002574
 c525: u_a9 - u_a13 - 1260 y_a13_proc_2 >= 999998712
 c526: u_a9 - u_a13 - 1162 y_a13_proc_0 >= 999998712
 c527: u_a9 - u_a13 - 534 y_a13_proc_1 >= 999997425
 c528: u_a14 - u_a9 - 1088 y_a9_proc_2 >= -1
 c529: u_a14 - u_a9 - 1232 y_a9_proc_0 >= -2575
 c530: u_a14 - u_a9 - 1200 y_a9_proc_1 >= -2575
 c531: u_a9 - u_a14 - 538 y_a14_proc_2 >= 0
 c532: u_a9 - u_a14 - 991 y_a14_proc_0 >= -2574
 c533: u_a9 - u_a14 - 1139 y_a14_proc_1 >= -2574
 c534: u_a11 - u_a10 - 853 y_a10_proc_2 >= -2574
 c535: u_a11 - u_a10 - 1159 y_a10_proc_0 >= -2574
 c536: u_a11 - u_a10 - 603 y_a10_proc_1 >= 0
 c537: u_a10 - u_a11 - 1062 y_a11_proc_2 >= -2575
 c538: u_a10 - u_a11 - 1075 y_a11_proc_0 >= -2575
 c539: u_a10 - u_a11 - 1192 y_a11_proc_1 >= -1
 c540: u_a12 - u_a10 - 853 y_a10_proc_2 >= 999997425
 c541: u_a12 - u_a10 - 1159 y_a10_proc_0 >= 999998712
 c542: u_a12 - u_a10 - 603 y_a10_proc_1 >= 999998712
 c543: u_a10 - u_a12 - 1260 y_a12_proc_2 >= -1000002574
 c544: u_a10 - u_a12 - 754 y_a12_proc_0 >= -1000001287
 c545: u_a10 - u_a12 - 1028 y_a12_proc_1 >= -1000001287
 c546: u_a13 - u_a10 - 853 y_a10_proc_2 >= -3861
 c547: u_a13 - u_a10 - 1159 y_a10_proc_0 >= -2574
 c548: u_a13 - u_a10 - 603 y_a10_proc_1 >= -2574
 c549: u_a10 - u_a13 - 1260 y_a13_proc_2 >= -1288
 c550: u_a10 - u_a13 - 1162 y_a13_proc_0 >= -1
 c551: u_a10 - u_a13 - 534 y_a13_proc_1 >= -1
 c552: u_a14 - u_a10 - 853 y_a10_proc_2 >= 999998712
 c553: u_a14 - u_a10 - 1159 y_a10_proc_0 >= 999997425
 c554: u_a14 - u_a10 - 603 y_a10_proc_1 >= 999998712
 c555: u_a10 - u_a14 - 538 y_a14_proc_2 >= -1000001287
 c556: u_a10 - u_a14 - 991 y_a14_proc_0 >= -1000002574
 c557: u_a10 - u_a14 - 1139 y_a14_proc_1 >= -1000001287
 c558: u_a12 - u_a11 - 1062 y_a11_proc_2 >= 999997425
 c559: u_a12 - u_a11 - 1075 y_a11_proc_0 >= 999998712
 c560: u_a12 - u_a11 - 1192 y_a11_proc_1 >= 999998712
 c561: u_a11 - u_a12 - 1260 y_a12_proc_2 >= -1000002574
 c562: u_a11 - u_a12 - 754 y_a12_proc_0 >= -1000001287
 c563: u_a11 - u_a12 - 1028 y_a12_proc_1 >= -1000001287
 c564: u_a13 - u_a11 - 1062 y_a11_proc_2 >= -3861
 c565: u_a13 - u_a11 - 1075 y_a11_proc_0 >= -2574
 c566: u_a13 - u_a11 - 1192 y_a11_proc_1 >= -2574
 c567: u_a11 - u_a13 - 1260 y_a13_proc_2 >= -1288
 c568: u_a11 - u_a13 - 1162 y_a13_proc_0 >= -1
 c569: u_a11 - u_a13 - 534 y_a13_proc_1 >= -1
 c570: u_a14 - u_a11 - 1062 y_a11_proc_2 >= 999998712
 c571: u_a14 - u_a11 - 1075 y_a11_proc_0 >= 999997425
 c572: u_a14 - u_a11 - 1192 y_a11_proc_1 >= 999998712
 c573: u_a11 - u_a14 - 538 y_a14_proc_2 >= -1000001287
 c574: u_a11 - u_a14 - 991 y_a14_proc_0 >= -1000002574
 c575: u_a11 - u_a14 - 1139 y_a14_proc_1 >= -1000001287
 c576: u_a13 - u_a12 - 1260 y_a12_proc_2 >= -1000002574
 c577: u_a13 - u_a12 - 754 y_a12_proc_0 >= -1000000000
 c578: u_a13 - u_a12 - 1028 y_a12_proc_1 >= -1000002574
 c579: u_a12 - u_a13 - 1260 y_a13_proc_2 >= 999997425
 c580: u_a12 - u_a13 - 1162 y_a13_proc_0 >= 999999999
 c581: u_a12 - u_a13 - 534 y_a13_proc_1 >= 999997425
 c582: u_a14 - u_a12 - 1260 y_a12_proc_2 >= -1
 c583: u_a14 - u_a12 - 754 y_a12_proc_0 >= -1
 c584: u_a14 - u_a12 - 1028 y_a12_proc_1 >= -1288
 c585: u_a12 - u_a14 - 538 y_a14_proc_2 >= -2574
 c586: u_a12 - u_a14 - 991 y_a14_proc_0 >= -2574
 c587: u_a12 - u_a14 - 1139 y_a14_proc_1 >= -3861
 c588: u_a14 - u_a13 - 1260 y_a13_proc_2 >= 999998712
 c589: u_a14 - u_a13 - 1162 y_a13_proc_0 >= 999998712
 c590: u_a14 - u_a13 - 534 y_a13_proc_1 >= 999997425
 c591: u_a13 - u_a14 - 538 y_a14_proc_2 >= -1000001287
 c592: u_a13 - u_a14 - 991 y_a14_proc_0 >= -1000001287
 c593: u_a13 - u_a14 - 1139 y_a14_proc_1 >= -1000002574

Bounds
End
